p ocr 224 26 116
152 225
162 225
175 225
176 225
177 225
178 225
179 225
180 225
181 225
187 225
188 225
195 225
196 225
197 225
198 225
200 225
203 225
217 225
175 226
176 226
190 226
216 226
175 227
195 227
175 228
190 228
191 228
182 229
177 230
180 230
211 230
175 231
179 231
204 231
175 232
179 232
204 232
175 233
190 233
191 233
185 234
186 234
175 235
176 235
177 235
178 235
180 235
183 235
184 235
190 235
191 235
192 235
216 235
217 235
224 235
176 236
212 236
175 237
176 237
182 237
185 237
186 237
189 237
194 237
201 237
209 237
210 237
177 238
200 238
185 239
176 240
177 240
184 240
215 240
223 240
176 241
193 241
205 241
213 241
176 242
182 242
185 242
189 242
193 242
205 242
212 242
213 242
179 243
187 243
197 243
198 243
203 243
185 244
194 244
187 245
188 245
187 246
188 246
185 247
194 247
187 248
188 248
197 248
203 248
185 249
186 249
202 249
220 249
175 250
179 250
181 250
198 250
206 250
208 250
219 250
221 250